instances/knapsack/discrete_knapsack_uncertainty/knapsack_60_16.lp
\ Model knapsack_60_16
\ LP format - for model browsing. Use MPS format to capture full model detail.
\ Signature: 0x44a844bc7146bef8
Minimize
  - 76 x[0] - 17 x[1] - 62 x[2] - 6 x[3] - 4 x[4] - 7 x[5] - 52 x[6]
   - 86 x[7] - 5 x[8] - 61 x[9] - 81 x[10] - 9 x[11] - 61 x[12] - 84 x[13]
   - 77 x[14] - 90 x[15] - 68 x[16] - 92 x[17] - 69 x[18] - 88 x[19]
   - 92 x[20] - 25 x[21] - 10 x[22] - 22 x[23] - 79 x[24] - 61 x[25]
   - 74 x[26] - 14 x[27] - 48 x[28] - 39 x[29] - 23 x[30] - 54 x[31]
   - 42 x[32] - 89 x[33] - 78 x[34] - 27 x[35] - 75 x[36] - 41 x[37]
   - 17 x[38] - 90 x[39] - 14 x[40] - 68 x[41] - 72 x[42] - 97 x[43]
   - 81 x[44] - 93 x[45] - 15 x[46] - 63 x[47] - 87 x[48] - 60 x[49]
   - 53 x[50] - 9 x[51] - 29 x[52] - 11 x[53] - 90 x[54] - 60 x[55]
   - 9 x[56] - 54 x[57] - 82 x[58] - 93 x[59]
Subject To
 primal_upper: 30 x[0] + 2 x[1] + 60 x[2] + 41 x[3] + 42 x[4] + 24 x[5]
   + 47 x[6] + 18 x[7] + 31 x[8] + 60 x[9] + 10 x[10] + 81 x[11] + 70 x[12]
   + 86 x[13] + 75 x[14] + 99 x[15] + 51 x[16] + 30 x[17] + 59 x[18]
   + 96 x[19] + 83 x[20] + 62 x[21] + 18 x[22] + 45 x[23] + 31 x[24]
   + 2 x[25] + 36 x[26] + 78 x[27] + 16 x[28] + 29 x[29] + 100 x[30]
   + 22 x[31] + 54 x[32] + 7 x[33] + 62 x[34] + 23 x[35] + 50 x[36]
   + 67 x[37] + 14 x[38] + 57 x[39] + 17 x[40] + 4 x[41] + 24 x[42]
   + 72 x[43] + 53 x[44] + 17 x[45] + 92 x[46] + 64 x[47] + 45 x[48]
   + 50 x[49] + x[50] + 10 x[51] + 79 x[52] + 22 x[53] + 67 x[54]
   + 70 x[55] + 87 x[56] + 65 x[57] + 62 x[58] + 16 x[59] + 3 r[0]
   + 0.2 r[1] + 6 r[2] + 4.1 r[3] + 4.2 r[4] + 2.4 r[5] + 4.7 r[6]
   + 1.8 r[7] + 3.1 r[8] + 6 r[9] + r[10] + 8.1 r[11] + 7 r[12] + 8.6 r[13]
   + 7.5 r[14] + 9.9 r[15] + 5.1 r[16] + 3 r[17] + 5.9 r[18] + 9.6 r[19]
   + 8.3 r[20] + 6.2 r[21] + 1.8 r[22] + 4.5 r[23] + 3.1 r[24] + 0.2 r[25]
   + 3.6 r[26] + 7.8 r[27] + 1.6 r[28] + 2.9 r[29] + 10 r[30] + 2.2 r[31]
   + 5.4 r[32] + 0.7 r[33] + 6.2 r[34] + 2.3 r[35] + 5 r[36] + 6.7 r[37]
   + 1.4 r[38] + 5.7 r[39] + 1.7 r[40] + 0.4 r[41] + 2.4 r[42] + 7.2 r[43]
   + 5.3 r[44] + 1.7 r[45] + 9.2 r[46] + 6.4 r[47] + 4.5 r[48] + 5 r[49]
   + 0.1 r[50] + r[51] + 7.9 r[52] + 2.2 r[53] + 6.7 r[54] + 7 r[55]
   + 8.7 r[56] + 6.5 r[57] + 6.2 r[58] + 1.6 r[59] <= 265
 primal_lower: 2.636256816509813 x[0] + 3.116236163823076 x[1]
   + 3.495814847235722 x[2] + 3.052364537045595 x[3]
   + 1.167899055999144 x[4] + 2.721963228352034 x[5]
   + 0.9137784707119285 x[6] + 0.4642924051252985 x[7]
   + 4.228131626566308 x[8] + 4.230723634221335 x[9]
   + 0.5153088097818186 x[10] + 0.8952143926021374 x[11]
   + 0.7262861639873663 x[12] + 0.7194404229825929 x[13]
   + 1.909576180545928 x[14] + 4.101383605345731 x[15]
   + 3.141125930716109 x[16] + 2.842968884311027 x[17]
   + 4.3418824870805 x[18] + 2.012721055866971 x[19]
   + 0.310283487198822 x[20] + 0.792377732614862 x[21]
   + 1.654881113449046 x[22] + 3.384935867204545 x[23]
   + 1.919516395405183 x[24] + 0.51119437030561 x[25]
   + 1.435915987013433 x[26] + 2.39688984307136 x[27]
   + 0.3164287960102852 x[28] + 0.0580074958040273 x[29]
   + 4.022039490098358 x[30] + 3.458867702611864 x[31]
   + 0.3496314621237889 x[32] + 2.496363617614522 x[33]
   + 3.498328452921319 x[34] + 3.925011951350589 x[35]
   + 0.9857218619620983 x[36] + 0.1084571101477601 x[37]
   + 0.5872875984629118 x[38] + 2.381281944589493 x[39]
   + 1.072734827934043 x[40] + 1.092713425022314 x[41]
   + 1.257090254252378 x[42] + 1.063994087714795 x[43]
   + 3.489921332592358 x[44] + 0.9120678690726943 x[45]
   + 0.6188923206632257 x[46] + 1.899705332754082 x[47]
   + 3.040804818380034 x[48] + 3.532686170313581 x[49]
   + 3.30997679941329 x[50] + 3.825715490782237 x[51]
   + 3.168636982989855 x[52] + 4.040827280413636 x[53]
   + 1.976393806780448 x[54] + 0.2411375685536558 x[55]
   + 0.5111088572963114 x[56] + 0.045523894682424 x[57]
   + 0.4401873687176051 x[58] + 0.5280917893810633 x[59] + 22 u[0]
   + 98 u[1] + 32 u[2] + 81 u[3] + 58 u[4] + 44 u[5] + 71 u[6] + 94 u[7]
   + 59 u[8] + 36 u[9] + 34 u[10] + 61 u[11] + 46 u[12] + 62 u[13]
   + 7 u[14] + 59 u[15] + 19 u[16] + 10 u[17] + 91 u[18] + 4 u[19]
   + 83 u[20] + 58 u[21] + 26 u[22] + 33 u[23] + 95 u[24] + 26 u[25]
   + 8 u[26] + 82 u[27] + 20 u[28] + 45 u[29] + 44 u[30] + 38 u[31]
   + 70 u[32] + 35 u[33] + 50 u[34] + 11 u[35] + 54 u[36] + 75 u[37]
   + 82 u[38] + 69 u[39] + 29 u[40] + 48 u[41] + 100 u[42] + 84 u[43]
   + u[44] + 9 u[45] + 56 u[46] + 32 u[47] + 17 u[48] + 14 u[49] + 69 u[50]
   + 78 u[51] + 39 u[52] + 42 u[53] + 67 u[54] + 22 u[55] + 39 u[56]
   + 29 u[57] + 58 u[58] + 12 u[59] <= 39014
 mccormick1[0]: - u[0] + r[0] <= 0
 mccormick1[1]: - u[1] + r[1] <= 0
 mccormick1[2]: - u[2] + r[2] <= 0
 mccormick1[3]: - u[3] + r[3] <= 0
 mccormick1[4]: - u[4] + r[4] <= 0
 mccormick1[5]: - u[5] + r[5] <= 0
 mccormick1[6]: - u[6] + r[6] <= 0
 mccormick1[7]: - u[7] + r[7] <= 0
 mccormick1[8]: - u[8] + r[8] <= 0
 mccormick1[9]: - u[9] + r[9] <= 0
 mccormick1[10]: - u[10] + r[10] <= 0
 mccormick1[11]: - u[11] + r[11] <= 0
 mccormick1[12]: - u[12] + r[12] <= 0
 mccormick1[13]: - u[13] + r[13] <= 0
 mccormick1[14]: - u[14] + r[14] <= 0
 mccormick1[15]: - u[15] + r[15] <= 0
 mccormick1[16]: - u[16] + r[16] <= 0
 mccormick1[17]: - u[17] + r[17] <= 0
 mccormick1[18]: - u[18] + r[18] <= 0
 mccormick1[19]: - u[19] + r[19] <= 0
 mccormick1[20]: - u[20] + r[20] <= 0
 mccormick1[21]: - u[21] + r[21] <= 0
 mccormick1[22]: - u[22] + r[22] <= 0
 mccormick1[23]: - u[23] + r[23] <= 0
 mccormick1[24]: - u[24] + r[24] <= 0
 mccormick1[25]: - u[25] + r[25] <= 0
 mccormick1[26]: - u[26] + r[26] <= 0
 mccormick1[27]: - u[27] + r[27] <= 0
 mccormick1[28]: - u[28] + r[28] <= 0
 mccormick1[29]: - u[29] + r[29] <= 0
 mccormick1[30]: - u[30] + r[30] <= 0
 mccormick1[31]: - u[31] + r[31] <= 0
 mccormick1[32]: - u[32] + r[32] <= 0
 mccormick1[33]: - u[33] + r[33] <= 0
 mccormick1[34]: - u[34] + r[34] <= 0
 mccormick1[35]: - u[35] + r[35] <= 0
 mccormick1[36]: - u[36] + r[36] <= 0
 mccormick1[37]: - u[37] + r[37] <= 0
 mccormick1[38]: - u[38] + r[38] <= 0
 mccormick1[39]: - u[39] + r[39] <= 0
 mccormick1[40]: - u[40] + r[40] <= 0
 mccormick1[41]: - u[41] + r[41] <= 0
 mccormick1[42]: - u[42] + r[42] <= 0
 mccormick1[43]: - u[43] + r[43] <= 0
 mccormick1[44]: - u[44] + r[44] <= 0
 mccormick1[45]: - u[45] + r[45] <= 0
 mccormick1[46]: - u[46] + r[46] <= 0
 mccormick1[47]: - u[47] + r[47] <= 0
 mccormick1[48]: - u[48] + r[48] <= 0
 mccormick1[49]: - u[49] + r[49] <= 0
 mccormick1[50]: - u[50] + r[50] <= 0
 mccormick1[51]: - u[51] + r[51] <= 0
 mccormick1[52]: - u[52] + r[52] <= 0
 mccormick1[53]: - u[53] + r[53] <= 0
 mccormick1[54]: - u[54] + r[54] <= 0
 mccormick1[55]: - u[55] + r[55] <= 0
 mccormick1[56]: - u[56] + r[56] <= 0
 mccormick1[57]: - u[57] + r[57] <= 0
 mccormick1[58]: - u[58] + r[58] <= 0
 mccormick1[59]: - u[59] + r[59] <= 0
 mccormick2[0]: - x[0] + r[0] <= 0
 mccormick2[1]: - x[1] + r[1] <= 0
 mccormick2[2]: - x[2] + r[2] <= 0
 mccormick2[3]: - x[3] + r[3] <= 0
 mccormick2[4]: - x[4] + r[4] <= 0
 mccormick2[5]: - x[5] + r[5] <= 0
 mccormick2[6]: - x[6] + r[6] <= 0
 mccormick2[7]: - x[7] + r[7] <= 0
 mccormick2[8]: - x[8] + r[8] <= 0
 mccormick2[9]: - x[9] + r[9] <= 0
 mccormick2[10]: - x[10] + r[10] <= 0
 mccormick2[11]: - x[11] + r[11] <= 0
 mccormick2[12]: - x[12] + r[12] <= 0
 mccormick2[13]: - x[13] + r[13] <= 0
 mccormick2[14]: - x[14] + r[14] <= 0
 mccormick2[15]: - x[15] + r[15] <= 0
 mccormick2[16]: - x[16] + r[16] <= 0
 mccormick2[17]: - x[17] + r[17] <= 0
 mccormick2[18]: - x[18] + r[18] <= 0
 mccormick2[19]: - x[19] + r[19] <= 0
 mccormick2[20]: - x[20] + r[20] <= 0
 mccormick2[21]: - x[21] + r[21] <= 0
 mccormick2[22]: - x[22] + r[22] <= 0
 mccormick2[23]: - x[23] + r[23] <= 0
 mccormick2[24]: - x[24] + r[24] <= 0
 mccormick2[25]: - x[25] + r[25] <= 0
 mccormick2[26]: - x[26] + r[26] <= 0
 mccormick2[27]: - x[27] + r[27] <= 0
 mccormick2[28]: - x[28] + r[28] <= 0
 mccormick2[29]: - x[29] + r[29] <= 0
 mccormick2[30]: - x[30] + r[30] <= 0
 mccormick2[31]: - x[31] + r[31] <= 0
 mccormick2[32]: - x[32] + r[32] <= 0
 mccormick2[33]: - x[33] + r[33] <= 0
 mccormick2[34]: - x[34] + r[34] <= 0
 mccormick2[35]: - x[35] + r[35] <= 0
 mccormick2[36]: - x[36] + r[36] <= 0
 mccormick2[37]: - x[37] + r[37] <= 0
 mccormick2[38]: - x[38] + r[38] <= 0
 mccormick2[39]: - x[39] + r[39] <= 0
 mccormick2[40]: - x[40] + r[40] <= 0
 mccormick2[41]: - x[41] + r[41] <= 0
 mccormick2[42]: - x[42] + r[42] <= 0
 mccormick2[43]: - x[43] + r[43] <= 0
 mccormick2[44]: - x[44] + r[44] <= 0
 mccormick2[45]: - x[45] + r[45] <= 0
 mccormick2[46]: - x[46] + r[46] <= 0
 mccormick2[47]: - x[47] + r[47] <= 0
 mccormick2[48]: - x[48] + r[48] <= 0
 mccormick2[49]: - x[49] + r[49] <= 0
 mccormick2[50]: - x[50] + r[50] <= 0
 mccormick2[51]: - x[51] + r[51] <= 0
 mccormick2[52]: - x[52] + r[52] <= 0
 mccormick2[53]: - x[53] + r[53] <= 0
 mccormick2[54]: - x[54] + r[54] <= 0
 mccormick2[55]: - x[55] + r[55] <= 0
 mccormick2[56]: - x[56] + r[56] <= 0
 mccormick2[57]: - x[57] + r[57] <= 0
 mccormick2[58]: - x[58] + r[58] <= 0
 mccormick2[59]: - x[59] + r[59] <= 0
 mccormick3[0]: x[0] + u[0] - r[0] <= 1
 mccormick3[1]: x[1] + u[1] - r[1] <= 1
 mccormick3[2]: x[2] + u[2] - r[2] <= 1
 mccormick3[3]: x[3] + u[3] - r[3] <= 1
 mccormick3[4]: x[4] + u[4] - r[4] <= 1
 mccormick3[5]: x[5] + u[5] - r[5] <= 1
 mccormick3[6]: x[6] + u[6] - r[6] <= 1
 mccormick3[7]: x[7] + u[7] - r[7] <= 1
 mccormick3[8]: x[8] + u[8] - r[8] <= 1
 mccormick3[9]: x[9] + u[9] - r[9] <= 1
 mccormick3[10]: x[10] + u[10] - r[10] <= 1
 mccormick3[11]: x[11] + u[11] - r[11] <= 1
 mccormick3[12]: x[12] + u[12] - r[12] <= 1
 mccormick3[13]: x[13] + u[13] - r[13] <= 1
 mccormick3[14]: x[14] + u[14] - r[14] <= 1
 mccormick3[15]: x[15] + u[15] - r[15] <= 1
 mccormick3[16]: x[16] + u[16] - r[16] <= 1
 mccormick3[17]: x[17] + u[17] - r[17] <= 1
 mccormick3[18]: x[18] + u[18] - r[18] <= 1
 mccormick3[19]: x[19] + u[19] - r[19] <= 1
 mccormick3[20]: x[20] + u[20] - r[20] <= 1
 mccormick3[21]: x[21] + u[21] - r[21] <= 1
 mccormick3[22]: x[22] + u[22] - r[22] <= 1
 mccormick3[23]: x[23] + u[23] - r[23] <= 1
 mccormick3[24]: x[24] + u[24] - r[24] <= 1
 mccormick3[25]: x[25] + u[25] - r[25] <= 1
 mccormick3[26]: x[26] + u[26] - r[26] <= 1
 mccormick3[27]: x[27] + u[27] - r[27] <= 1
 mccormick3[28]: x[28] + u[28] - r[28] <= 1
 mccormick3[29]: x[29] + u[29] - r[29] <= 1
 mccormick3[30]: x[30] + u[30] - r[30] <= 1
 mccormick3[31]: x[31] + u[31] - r[31] <= 1
 mccormick3[32]: x[32] + u[32] - r[32] <= 1
 mccormick3[33]: x[33] + u[33] - r[33] <= 1
 mccormick3[34]: x[34] + u[34] - r[34] <= 1
 mccormick3[35]: x[35] + u[35] - r[35] <= 1
 mccormick3[36]: x[36] + u[36] - r[36] <= 1
 mccormick3[37]: x[37] + u[37] - r[37] <= 1
 mccormick3[38]: x[38] + u[38] - r[38] <= 1
 mccormick3[39]: x[39] + u[39] - r[39] <= 1
 mccormick3[40]: x[40] + u[40] - r[40] <= 1
 mccormick3[41]: x[41] + u[41] - r[41] <= 1
 mccormick3[42]: x[42] + u[42] - r[42] <= 1
 mccormick3[43]: x[43] + u[43] - r[43] <= 1
 mccormick3[44]: x[44] + u[44] - r[44] <= 1
 mccormick3[45]: x[45] + u[45] - r[45] <= 1
 mccormick3[46]: x[46] + u[46] - r[46] <= 1
 mccormick3[47]: x[47] + u[47] - r[47] <= 1
 mccormick3[48]: x[48] + u[48] - r[48] <= 1
 mccormick3[49]: x[49] + u[49] - r[49] <= 1
 mccormick3[50]: x[50] + u[50] - r[50] <= 1
 mccormick3[51]: x[51] + u[51] - r[51] <= 1
 mccormick3[52]: x[52] + u[52] - r[52] <= 1
 mccormick3[53]: x[53] + u[53] - r[53] <= 1
 mccormick3[54]: x[54] + u[54] - r[54] <= 1
 mccormick3[55]: x[55] + u[55] - r[55] <= 1
 mccormick3[56]: x[56] + u[56] - r[56] <= 1
 mccormick3[57]: x[57] + u[57] - r[57] <= 1
 mccormick3[58]: x[58] + u[58] - r[58] <= 1
 mccormick3[59]: x[59] + u[59] - r[59] <= 1
Bounds
Binaries
 x[0] x[1] x[2] x[3] x[4] x[5] x[6] x[7] x[8] x[9] x[10] x[11] x[12] x[13]
 x[14] x[15] x[16] x[17] x[18] x[19] x[20] x[21] x[22] x[23] x[24] x[25]
 x[26] x[27] x[28] x[29] x[30] x[31] x[32] x[33] x[34] x[35] x[36] x[37]
 x[38] x[39] x[40] x[41] x[42] x[43] x[44] x[45] x[46] x[47] x[48] x[49]
 x[50] x[51] x[52] x[53] x[54] x[55] x[56] x[57] x[58] x[59] u[0] u[1] u[2]
 u[3] u[4] u[5] u[6] u[7] u[8] u[9] u[10] u[11] u[12] u[13] u[14] u[15]
 u[16] u[17] u[18] u[19] u[20] u[21] u[22] u[23] u[24] u[25] u[26] u[27]
 u[28] u[29] u[30] u[31] u[32] u[33] u[34] u[35] u[36] u[37] u[38] u[39]
 u[40] u[41] u[42] u[43] u[44] u[45] u[46] u[47] u[48] u[49] u[50] u[51]
 u[52] u[53] u[54] u[55] u[56] u[57] u[58] u[59] r[0] r[1] r[2] r[3] r[4]
 r[5] r[6] r[7] r[8] r[9] r[10] r[11] r[12] r[13] r[14] r[15] r[16] r[17]
 r[18] r[19] r[20] r[21] r[22] r[23] r[24] r[25] r[26] r[27] r[28] r[29]
 r[30] r[31] r[32] r[33] r[34] r[35] r[36] r[37] r[38] r[39] r[40] r[41]
 r[42] r[43] r[44] r[45] r[46] r[47] r[48] r[49] r[50] r[51] r[52] r[53]
 r[54] r[55] r[56] r[57] r[58] r[59]
End
