instances/knapsack/discrete/knapsack_60_16.kp
25182
60
265

30 3.0 76
2 0.2 17
60 6.0 62
41 4.1 6
42 4.2 4
24 2.4 7
47 4.7 52
18 1.8 86
31 3.1 5
60 6.0 61
10 1.0 81
81 8.1 9
70 7.0 61
86 8.6 84
75 7.5 77
99 9.9 90
51 5.1 68
30 3.0 92
59 5.9 69
96 9.6 88
83 8.3 92
62 6.2 25
18 1.8 10
45 4.5 22
31 3.1 79
2 0.2 61
36 3.6 74
78 7.8 14
16 1.6 48
29 2.9 39
100 10.0 23
22 2.2 54
54 5.4 42
7 0.7 89
62 6.2 78
23 2.3 27
50 5.0 75
67 6.7 41
14 1.4 17
57 5.7 90
17 1.7 14
4 0.4 68
24 2.4 72
72 7.2 97
53 5.3 81
17 1.7 93
92 9.2 15
64 6.4 63
45 4.5 87
50 5.0 60
1 0.1 53
10 1.0 9
79 7.9 29
22 2.2 11
67 6.7 90
70 7.0 60
87 8.7 9
65 6.5 54
62 6.2 82
16 1.6 93

39014
270

[2.6362568165098126 3.1162361638230758 3.4958148472357222 3.0523645370455945 1.1678990559991438 2.721963228352034 0.9137784707119285 0.4642924051252985 4.228131626566308 4.230723634221335 0.5153088097818186 0.8952143926021374 0.7262861639873663 0.7194404229825929 1.909576180545928 4.101383605345731 3.1411259307161092 2.8429688843110266 4.3418824870805 2.0127210558669706 0.31028348719882204 0.792377732614862 1.6548811134490462 3.384935867204545 1.9195163954051826 0.51119437030561 1.435915987013433 2.39688984307136 0.31642879601028523 0.058007495804027254 4.022039490098358 3.4588677026118644 0.34963146212378887 2.4963636176145223 3.4983284529213186 3.925011951350589 0.9857218619620983 0.1084571101477601 0.5872875984629118 2.381281944589493 1.0727348279340434 1.0927134250223136 1.257090254252378 1.0639940877147946 3.489921332592358 0.9120678690726943 0.6188923206632257 1.8997053327540825 3.0408048183800345 3.5326861703135815 3.3099767994132905 3.8257154907822373 3.1686369829898546 4.040827280413636 1.976393806780448 0.24113756855365576 0.5111088572963114 0.045523894682424015 0.4401873687176051 0.5280917893810633]

[22 98 32 81 58 44 71 94 59 36 34 61 46 62 7 59 19 10 91 4 83 58 26 33 95 26 8 82 20 45 44 38 70 35 50 11 54 75 82 69 29 48 100 84 1 9 56 32 17 14 69 78 39 42 67 22 39 29 58 12]
